p cnf 1400
-19 -439
-20 -442
-21 -445
-22 -448
-23 -451
-24 -454
-25 -457
-26 -460
-27 -463
-28 -466
-29 -469
-30 -472
-31 -475
-32 -478
-33 -481
-34 -484
-35 -487
-36 -490
-37 491
-38 492
-39 493
-40 494
-41 495
-42 496
-43 497
-44 498
-45 499
-46 500
-47 501
-48 502
-49 503
-50 -20
-50 -21
20 21 50
-51 -22
-51 -23
22 23 51
-52 -24
-52 -25
24 25 52
-53 -26
-53 -27
26 27 53
-54 -28
-54 -29
28 29 54
-55 -30
-55 -31
30 31 55
-56 -32
-56 -33
32 33 56
-57 -34
-57 -35
34 35 57
-58 -36
-58 -37
36 37 58
-59 -38
-59 -39
38 39 59
-60 -40
-60 -41
40 41 60
-61 -42
-61 -43
42 43 61
-62 -44
-62 -45
44 45 62
-63 -46
-63 -47
46 47 63
-64 -48
-64 -49
48 49 64
-65 50
-65 51
-50 -51 65
-66 52
-66 53
-52 -53 66
-67 54
-67 55
-54 -55 67
-68 56
-68 57
-56 -57 68
-69 58
-69 59
-58 -59 69
-70 60
-70 61
-60 -61 70
-71 62
-71 63
-62 -63 71
-72 65
-72 66
-65 -66 72
-73 67
-73 68
-67 -68 73
-74 69
-74 70
-69 -70 74
-75 64
-75 71
-64 -71 75
-76 72
-76 73
-72 -73 76
-77 74
-77 75
-74 -75 77
-78 76
-78 77
-76 -77 78
-79 -19
-79 20
19 -20 79
-80 19
-80 -20
-19 20 80
-81 -79
-81 -80
79 80 81
-82 19
-82 20
-19 -20 82
-83 -19
-83 -81
19 81 83
-84 19
-84 81
-19 -81 84
-85 -83
-85 -84
83 84 85
-86 19
-86 -81
-19 81 86
-87 -82
-87 -86
82 86 87
-88 -20
-88 21
20 -21 88
-89 20
-89 -21
-20 21 89
-90 -88
-90 -89
88 89 90
-91 20
-91 21
-20 -21 91
-92 87
-92 -90
-87 90 92
-93 -87
-93 90
87 -90 93
-94 -92
-94 -93
92 93 94
-95 -87
-95 -90
87 90 95
-96 -91
-96 -95
91 95 96
-97 -21
-97 22
21 -22 97
-98 21
-98 -22
-21 22 98
-99 -97
-99 -98
97 98 99
-100 21
-100 22
-21 -22 100
-101 96
-101 -99
-96 99 101
-102 -96
-102 99
96 -99 102
-103 -101
-103 -102
101 102 103
-104 -96
-104 -99
96 99 104
-105 -100
-105 -104
100 104 105
-106 -22
-106 23
22 -23 106
-107 22
-107 -23
-22 23 107
-108 -106
-108 -107
106 107 108
-109 22
-109 23
-22 -23 109
-110 105
-110 -108
-105 108 110
-111 -105
-111 108
105 -108 111
-112 -110
-112 -111
110 111 112
-113 -105
-113 -108
105 108 113
-114 -109
-114 -113
109 113 114
-115 -23
-115 24
23 -24 115
-116 23
-116 -24
-23 24 116
-117 -115
-117 -116
115 116 117
-118 23
-118 24
-23 -24 118
-119 114
-119 -117
-114 117 119
-120 -114
-120 117
114 -117 120
-121 -119
-121 -120
119 120 121
-122 -114
-122 -117
114 117 122
-123 -118
-123 -122
118 122 123
-124 -24
-124 25
24 -25 124
-125 24
-125 -25
-24 25 125
-126 -124
-126 -125
124 125 126
-127 24
-127 25
-24 -25 127
-128 123
-128 -126
-123 126 128
-129 -123
-129 126
123 -126 129
-130 -128
-130 -129
128 129 130
-131 -123
-131 -126
123 126 131
-132 -127
-132 -131
127 131 132
-133 -25
-133 26
25 -26 133
-134 25
-134 -26
-25 26 134
-135 -133
-135 -134
133 134 135
-136 25
-136 26
-25 -26 136
-137 132
-137 -135
-132 135 137
-138 -132
-138 135
132 -135 138
-139 -137
-139 -138
137 138 139
-140 -132
-140 -135
132 135 140
-141 -136
-141 -140
136 140 141
-142 -26
-142 27
26 -27 142
-143 26
-143 -27
-26 27 143
-144 -142
-144 -143
142 143 144
-145 26
-145 27
-26 -27 145
-146 141
-146 -144
-141 144 146
-147 -141
-147 144
141 -144 147
-148 -146
-148 -147
146 147 148
-149 -141
-149 -144
141 144 149
-150 -145
-150 -149
145 149 150
-151 -27
-151 28
27 -28 151
-152 27
-152 -28
-27 28 152
-153 -151
-153 -152
151 152 153
-154 27
-154 28
-27 -28 154
-155 150
-155 -153
-150 153 155
-156 -150
-156 153
150 -153 156
-157 -155
-157 -156
155 156 157
-158 -150
-158 -153
150 153 158
-159 -154
-159 -158
154 158 159
-160 -28
-160 29
28 -29 160
-161 28
-161 -29
-28 29 161
-162 -160
-162 -161
160 161 162
-163 28
-163 29
-28 -29 163
-164 159
-164 -162
-159 162 164
-165 -159
-165 162
159 -162 165
-166 -164
-166 -165
164 165 166
-167 -159
-167 -162
159 162 167
-168 -163
-168 -167
163 167 168
-169 -29
-169 30
29 -30 169
-170 29
-170 -30
-29 30 170
-171 -169
-171 -170
169 170 171
-172 29
-172 30
-29 -30 172
-173 168
-173 -171
-168 171 173
-174 -168
-174 171
168 -171 174
-175 -173
-175 -174
173 174 175
-176 -168
-176 -171
168 171 176
-177 -172
-177 -176
172 176 177
-178 -30
-178 31
30 -31 178
-179 30
-179 -31
-30 31 179
-180 -178
-180 -179
178 179 180
-181 30
-181 31
-30 -31 181
-182 177
-182 -180
-177 180 182
-183 -177
-183 180
177 -180 183
-184 -182
-184 -183
182 183 184
-185 -177
-185 -180
177 180 185
-186 -181
-186 -185
181 185 186
-187 -31
-187 32
31 -32 187
-188 31
-188 -32
-31 32 188
-189 -187
-189 -188
187 188 189
-190 31
-190 32
-31 -32 190
-191 186
-191 -189
-186 189 191
-192 -186
-192 189
186 -189 192
-193 -191
-193 -192
191 192 193
-194 -186
-194 -189
186 189 194
-195 -190
-195 -194
190 194 195
-196 -32
-196 33
32 -33 196
-197 32
-197 -33
-32 33 197
-198 -196
-198 -197
196 197 198
-199 32
-199 33
-32 -33 199
-200 195
-200 -198
-195 198 200
-201 -195
-201 198
195 -198 201
-202 -200
-202 -201
200 201 202
-203 -195
-203 -198
195 198 203
-204 -199
-204 -203
199 203 204
-205 -33
-205 34
33 -34 205
-206 33
-206 -34
-33 34 206
-207 -205
-207 -206
205 206 207
-208 33
-208 34
-33 -34 208
-209 204
-209 -207
-204 207 209
-210 -204
-210 207
204 -207 210
-211 -209
-211 -210
209 210 211
-212 -204
-212 -207
204 207 212
-213 -208
-213 -212
208 212 213
-214 -34
-214 35
34 -35 214
-215 34
-215 -35
-34 35 215
-216 -214
-216 -215
214 215 216
-217 34
-217 35
-34 -35 217
-218 213
-218 -216
-213 216 218
-219 -213
-219 216
213 -216 219
-220 -218
-220 -219
218 219 220
-221 -213
-221 -216
213 216 221
-222 -217
-222 -221
217 221 222
-223 -35
-223 36
35 -36 223
-224 35
-224 -36
-35 36 224
-225 -223
-225 -224
223 224 225
-226 35
-226 36
-35 -36 226
-227 222
-227 -225
-222 225 227
-228 -222
-228 225
222 -225 228
-229 -227
-229 -228
227 228 229
-230 -222
-230 -225
222 225 230
-231 -226
-231 -230
226 230 231
-232 -36
-232 37
36 -37 232
-233 36
-233 -37
-36 37 233
-234 -232
-234 -233
232 233 234
-235 36
-235 37
-36 -37 235
-236 231
-236 -234
-231 234 236
-237 -231
-237 234
231 -234 237
-238 -236
-238 -237
236 237 238
-239 -231
-239 -234
231 234 239
-240 -235
-240 -239
235 239 240
-241 -37
-241 38
37 -38 241
-242 37
-242 -38
-37 38 242
-243 -241
-243 -242
241 242 243
-244 37
-244 38
-37 -38 244
-245 240
-245 -243
-240 243 245
-246 -240
-246 243
240 -243 246
-247 -245
-247 -246
245 246 247
-248 -240
-248 -243
240 243 248
-249 -244
-249 -248
244 248 249
-250 -38
-250 39
38 -39 250
-251 38
-251 -39
-38 39 251
-252 -250
-252 -251
250 251 252
-253 38
-253 39
-38 -39 253
-254 249
-254 -252
-249 252 254
-255 -249
-255 252
249 -252 255
-256 -254
-256 -255
254 255 256
-257 -249
-257 -252
249 252 257
-258 -253
-258 -257
253 257 258
-259 -39
-259 40
39 -40 259
-260 39
-260 -40
-39 40 260
-261 -259
-261 -260
259 260 261
-262 39
-262 40
-39 -40 262
-263 258
-263 -261
-258 261 263
-264 -258
-264 261
258 -261 264
-265 -263
-265 -264
263 264 265
-266 -258
-266 -261
258 261 266
-267 -262
-267 -266
262 266 267
-268 -40
-268 41
40 -41 268
-269 40
-269 -41
-40 41 269
-270 -268
-270 -269
268 269 270
-271 40
-271 41
-40 -41 271
-272 267
-272 -270
-267 270 272
-273 -267
-273 270
267 -270 273
-274 -272
-274 -273
272 273 274
-275 -267
-275 -270
267 270 275
-276 -271
-276 -275
271 275 276
-277 -41
-277 42
41 -42 277
-278 41
-278 -42
-41 42 278
-279 -277
-279 -278
277 278 279
-280 41
-280 42
-41 -42 280
-281 276
-281 -279
-276 279 281
-282 -276
-282 279
276 -279 282
-283 -281
-283 -282
281 282 283
-284 -276
-284 -279
276 279 284
-285 -280
-285 -284
280 284 285
-286 -42
-286 43
42 -43 286
-287 42
-287 -43
-42 43 287
-288 -286
-288 -287
286 287 288
-289 42
-289 43
-42 -43 289
-290 285
-290 -288
-285 288 290
-291 -285
-291 288
285 -288 291
-292 -290
-292 -291
290 291 292
-293 -285
-293 -288
285 288 293
-294 -289
-294 -293
289 293 294
-295 -43
-295 44
43 -44 295
-296 43
-296 -44
-43 44 296
-297 -295
-297 -296
295 296 297
-298 43
-298 44
-43 -44 298
-299 294
-299 -297
-294 297 299
-300 -294
-300 297
294 -297 300
-301 -299
-301 -300
299 300 301
-302 -294
-302 -297
294 297 302
-303 -298
-303 -302
298 302 303
-304 -44
-304 45
44 -45 304
-305 44
-305 -45
-44 45 305
-306 -304
-306 -305
304 305 306
-307 44
-307 45
-44 -45 307
-308 303
-308 -306
-303 306 308
-309 -303
-309 306
303 -306 309
-310 -308
-310 -309
308 309 310
-311 -303
-311 -306
303 306 311
-312 -307
-312 -311
307 311 312
-313 -45
-313 46
45 -46 313
-314 45
-314 -46
-45 46 314
-315 -313
-315 -314
313 314 315
-316 45
-316 46
-45 -46 316
-317 312
-317 -315
-312 315 317
-318 -312
-318 315
312 -315 318
-319 -317
-319 -318
317 318 319
-320 -312
-320 -315
312 315 320
-321 -316
-321 -320
316 320 321
-322 -46
-322 47
46 -47 322
-323 46
-323 -47
-46 47 323
-324 -322
-324 -323
322 323 324
-325 46
-325 47
-46 -47 325
-326 321
-326 -324
-321 324 326
-327 -321
-327 324
321 -324 327
-328 -326
-328 -327
326 327 328
-329 -321
-329 -324
321 324 329
-330 -325
-330 -329
325 329 330
-331 -47
-331 48
47 -48 331
-332 47
-332 -48
-47 48 332
-333 -331
-333 -332
331 332 333
-334 47
-334 48
-47 -48 334
-335 330
-335 -333
-330 333 335
-336 -330
-336 333
330 -333 336
-337 -335
-337 -336
335 336 337
-338 -330
-338 -333
330 333 338
-339 -334
-339 -338
334 338 339
-340 -48
-340 49
48 -49 340
-341 48
-341 -49
-48 49 341
-342 -340
-342 -341
340 341 342
-343 48
-343 49
-48 -49 343
-344 339
-344 -342
-339 342 344
-345 -339
-345 342
339 -342 345
-346 -344
-346 -345
344 345 346
-347 -339
-347 -342
339 342 347
-348 -343
-348 -347
343 347 348
-349 19
-349 -85
-19 85 349
-350 -19
-350 21
19 -21 350
-351 -349
-351 -350
349 350 351
-352 19
-352 -94
-19 94 352
-353 -19
-353 22
19 -22 353
-354 -352
-354 -353
352 353 354
-355 19
-355 -103
-19 103 355
-356 -19
-356 23
19 -23 356
-357 -355
-357 -356
355 356 357
-358 19
-358 -112
-19 112 358
-359 -19
-359 24
19 -24 359
-360 -358
-360 -359
358 359 360
-361 19
-361 -121
-19 121 361
-362 -19
-362 25
19 -25 362
-363 -361
-363 -362
361 362 363
-364 19
-364 -130
-19 130 364
-365 -19
-365 26
19 -26 365
-366 -364
-366 -365
364 365 366
-367 19
-367 -139
-19 139 367
-368 -19
-368 27
19 -27 368
-369 -367
-369 -368
367 368 369
-370 19
-370 -148
-19 148 370
-371 -19
-371 28
19 -28 371
-372 -370
-372 -371
370 371 372
-373 19
-373 -157
-19 157 373
-374 -19
-374 29
19 -29 374
-375 -373
-375 -374
373 374 375
-376 19
-376 -166
-19 166 376
-377 -19
-377 30
19 -30 377
-378 -376
-378 -377
376 377 378
-379 19
-379 -175
-19 175 379
-380 -19
-380 31
19 -31 380
-381 -379
-381 -380
379 380 381
-382 19
-382 -184
-19 184 382
-383 -19
-383 32
19 -32 383
-384 -382
-384 -383
382 383 384
-385 19
-385 -193
-19 193 385
-386 -19
-386 33
19 -33 386
-387 -385
-387 -386
385 386 387
-388 19
-388 -202
-19 202 388
-389 -19
-389 34
19 -34 389
-390 -388
-390 -389
388 389 390
-391 19
-391 -211
-19 211 391
-392 -19
-392 35
19 -35 392
-393 -391
-393 -392
391 392 393
-394 19
-394 -220
-19 220 394
-395 -19
-395 36
19 -36 395
-396 -394
-396 -395
394 395 396
-397 19
-397 -229
-19 229 397
-398 -19
-398 37
19 -37 398
-399 -397
-399 -398
397 398 399
-400 19
-400 -238
-19 238 400
-401 -19
-401 38
19 -38 401
-402 -400
-402 -401
400 401 402
-403 19
-403 -247
-19 247 403
-404 -19
-404 39
19 -39 404
-405 -403
-405 -404
403 404 405
-406 19
-406 -256
-19 256 406
-407 -19
-407 40
19 -40 407
-408 -406
-408 -407
406 407 408
-409 19
-409 -265
-19 265 409
-410 -19
-410 41
19 -41 410
-411 -409
-411 -410
409 410 411
-412 19
-412 -274
-19 274 412
-413 -19
-413 42
19 -42 413
-414 -412
-414 -413
412 413 414
-415 19
-415 -283
-19 283 415
-416 -19
-416 43
19 -43 416
-417 -415
-417 -416
415 416 417
-418 19
-418 -292
-19 292 418
-419 -19
-419 44
19 -44 419
-420 -418
-420 -419
418 419 420
-421 19
-421 -301
-19 301 421
-422 -19
-422 45
19 -45 422
-423 -421
-423 -422
421 422 423
-424 19
-424 -310
-19 310 424
-425 -19
-425 46
19 -46 425
-426 -424
-426 -425
424 425 426
-427 19
-427 -319
-19 319 427
-428 -19
-428 47
19 -47 428
-429 -427
-429 -428
427 428 429
-430 19
-430 -328
-19 328 430
-431 -19
-431 48
19 -48 431
-432 -430
-432 -431
430 431 432
-433 19
-433 -337
-19 337 433
-434 -19
-434 49
19 -49 434
-435 -433
-435 -434
433 434 435
-436 19
-436 -346
-19 346 436
-437 1
-437 78
-1 -78 437
-438 -78
-438 79
78 -79 438
-439 -437
-439 -438
437 438 439
-440 2
-440 78
-2 -78 440
-441 -78
-441 -351
78 351 441
-442 -440
-442 -441
440 441 442
-443 3
-443 78
-3 -78 443
-444 -78
-444 -354
78 354 444
-445 -443
-445 -444
443 444 445
-446 4
-446 78
-4 -78 446
-447 -78
-447 -357
78 357 447
-448 -446
-448 -447
446 447 448
-449 5
-449 78
-5 -78 449
-450 -78
-450 -360
78 360 450
-451 -449
-451 -450
449 450 451
-452 6
-452 78
-6 -78 452
-453 -78
-453 -363
78 363 453
-454 -452
-454 -453
452 453 454
-455 7
-455 78
-7 -78 455
-456 -78
-456 -366
78 366 456
-457 -455
-457 -456
455 456 457
-458 8
-458 78
-8 -78 458
-459 -78
-459 -369
78 369 459
-460 -458
-460 -459
458 459 460
-461 9
-461 78
-9 -78 461
-462 -78
-462 -372
78 372 462
-463 -461
-463 -462
461 462 463
-464 10
-464 78
-10 -78 464
-465 -78
-465 -375
78 375 465
-466 -464
-466 -465
464 465 466
-467 11
-467 78
-11 -78 467
-468 -78
-468 -378
78 378 468
-469 -467
-469 -468
467 468 469
-470 12
-470 78
-12 -78 470
-471 -78
-471 -381
78 381 471
-472 -470
-472 -471
470 471 472
-473 13
-473 78
-13 -78 473
-474 -78
-474 -384
78 384 474
-475 -473
-475 -474
473 474 475
-476 14
-476 78
-14 -78 476
-477 -78
-477 -387
78 387 477
-478 -476
-478 -477
476 477 478
-479 15
-479 78
-15 -78 479
-480 -78
-480 -390
78 390 480
-481 -479
-481 -480
479 480 481
-482 16
-482 78
-16 -78 482
-483 -78
-483 -393
78 393 483
-484 -482
-484 -483
482 483 484
-485 17
-485 78
-17 -78 485
-486 -78
-486 -396
78 396 486
-487 -485
-487 -486
485 486 487
-488 18
-488 78
-18 -78 488
-489 -78
-489 -399
78 399 489
-490 -488
-490 -489
488 489 490
-491 -78
-491 -402
78 402 491
-492 -78
-492 -405
78 405 492
-493 -78
-493 -408
78 408 493
-494 -78
-494 -411
78 411 494
-495 -78
-495 -414
78 414 495
-496 -78
-496 -417
78 417 496
-497 -78
-497 -420
78 420 497
-498 -78
-498 -423
78 423 498
-499 -78
-499 -426
78 426 499
-500 -78
-500 -429
78 429 500
-501 -78
-501 -432
78 432 501
-502 -78
-502 -435
78 435 502
-503 -78
-503 436
78 -436 503
-504 -49
-504 348
49 -348 504
-505 19
-505 -504
-19 504 505
505
